LAMMPS data file via write_data, version 22 Jul 2025, timestep = 4124, units = real

512 atoms
1 atom types

0.004470067944744471 24.886622932055168 xlo xhi
0.004470067944744471 24.886622932055168 ylo yhi
0.004470067944744471 24.886622932055168 zlo zhi

Masses

1 18.015

Atoms # atomic

12 1 6.966554710537837 2.88150983586521 24.6116675136359 0 0 0
131 1 8.457656293858298 4.166820542071288 1.6539363325454488 0 0 1
348 1 14.481477416980526 0.9725690713304358 2.3734988395579446 0 0 0
425 1 16.735862799793754 2.245982818355222 3.313706400109097 -1 0 0
189 1 18.826592872682777 2.4275752999733227 1.5583465518327586 -1 0 1
470 1 19.750119723081887 24.853823595123476 1.0204516446277483 0 0 0
359 1 0.35695509777336754 0.8269816293152387 1.5754728137529705 0 1 0
230 1 2.1721226207198843 6.286454418904607 2.350840158610085 0 0 0
431 1 4.609957744172606 4.880867827483467 0.38064894432784163 0 0 1
404 1 7.2360684329218286 6.140614989598673 3.091511622728294 0 1 0
237 1 12.091442426832563 4.331692862924307 3.2692733585219163 0 1 0
301 1 10.84606759684244 4.094579050795747 0.6268889914211652 0 0 0
77 1 14.870103028253263 4.2212440320402 2.292516668022171 0 1 1
2 1 15.846600181448274 7.0930398249405595 2.4851423886301394 0 0 0
351 1 19.938105032617827 4.688483665766807 2.73075430679697 -1 1 1
221 1 22.784990088377864 5.424049111911489 1.9700305280390098 -1 0 1
8 1 0.8052055987274928 9.141728950042378 0.5224633026189999 0 0 0
98 1 7.583912089435484 7.905881640320251 1.204381183312766 0 1 0
169 1 4.954887662433206 9.642128436343636 1.4425278153130574 0 0 0
4 1 9.604064749207812 9.992558429591904 1.8811486665806236 0 0 0
40 1 11.922306693292589 8.789031405418203 1.5508945358290382 0 0 0
329 1 16.27519256085538 9.485772344975826 0.25997003709849315 0 0 0
328 1 18.689491657611953 7.011603587087018 2.2121021347870307 0 0 0
145 1 19.983467759011518 9.197929665817696 3.316800533442772 0 0 0
304 1 23.00536066780514 7.86138321580875 0.957232410184672 -1 0 0
277 1 21.06302923587704 9.951171131382486 0.4000509910938832 0 0 0
76 1 2.8365895183477976 13.358262698484744 1.9565503425719446 0 0 0
418 1 1.188014870877634 15.15234393005093 0.702793149411001 0 0 0
503 1 6.2817530970489885 11.395627467888065 3.118591144903548 0 0 0
414 1 5.9538083970606115 13.850038185499388 2.8971504203955356 0 0 0
293 1 13.988755179378682 10.62098197746565 1.0792485071960403 0 0 0
466 1 12.701092010643677 11.756416150710985 23.790176994138992 0 0 0
292 1 13.601472845227537 13.38563155604282 1.8052585801932721 0 0 0
248 1 15.859012267754025 14.81594767236674 2.6391053421227646 0 0 0
357 1 18.093237787013802 11.331300356056754 1.6456552427436233 0 0 0
156 1 21.63266218818517 12.529076341347505 1.3949967872611369 -1 0 0
459 1 17.722787469005517 13.212034018677896 24.24691954148448 0 0 0
306 1 23.573441490810065 13.739893667893439 24.59055829400261 0 0 -1
346 1 23.941237279540168 12.374069065557112 3.5015490257066357 -1 0 0
20 1 0.502352386384566 14.825179028523394 4.675815163379633 0 0 1
318 1 6.131640134686442 15.18499207725154 0.5553598359088603 0 0 0
109 1 10.180983542816255 18.251709597727256 1.8203730665398175 0 0 0
272 1 11.20574228955596 14.514491001299586 4.177595727078115 0 0 0
192 1 11.607066731932417 15.44105818545636 1.339823145366254 0 0 0
492 1 13.63287921142186 16.451420535962505 24.711478795784586 0 0 0
389 1 16.47772464016339 15.668331056106878 24.767108892695774 0 0 0
173 1 18.705013630928182 17.201448544081753 2.777197862066819 0 0 0
365 1 20.652941991555085 15.01680646150004 3.3394772285587653 0 0 1
473 1 23.167309960067726 17.658770161285325 0.6203261033351423 0 0 0
338 1 23.391255798502566 16.113269687122266 3.2901901114408667 -1 0 0
29 1 1.0663709799205332 17.50149723312983 2.4237959284926784 0 0 1
342 1 2.8572279067048343 19.006960919671684 0.4932462449266787 0 0 0
433 1 5.388305448339047 17.90718100533103 2.3570542181691514 0 0 0
374 1 2.9663359776217524 20.545435007801064 3.4692033433363103 0 -1 1
460 1 8.462226065914479 20.05090923606662 3.8957630954848117 1 0 0
475 1 10.957246635818779 21.11037812459075 4.337027552415434 0 0 0
267 1 11.983917217985786 18.501951586253483 4.0806696313647 0 -1 1
120 1 13.919836876102929 19.163140249914708 24.73796655907678 0 0 0
324 1 16.599666748336826 19.25765873315841 1.2692852956997256 0 0 1
373 1 20.37177219384947 21.03767315897133 0.37964164637054026 0 0 1
152 1 20.759501855744684 18.790237510764783 1.7948335898075383 0 0 1
448 1 1.720128846791751 23.246022116814792 2.075287782231813 0 0 1
465 1 5.626062546854647 0.9475755692763682 1.679774874046112 1 1 1
271 1 4.49907575252034 23.808779559364197 2.866112730923713 0 -1 0
60 1 8.284463894799279 24.552446577994793 1.6044449134268461 0 0 1
266 1 6.897020889070312 22.0676709119422 2.1803503195571707 1 0 0
347 1 11.820961112572633 22.782966973782266 2.259355520446429 0 -1 0
14 1 15.67299139787869 23.144305733526597 2.32910262697346 0 0 1
258 1 17.715759612790865 21.59787770226997 0.876727152874531 0 0 1
464 1 18.249934989855316 24.05757447798916 3.242001408070949 0 -1 0
502 1 24.52165737015387 21.63640126552938 1.7825642638488293 -1 0 1
234 1 22.171933224462 22.543337088128546 1.6872371221241158 0 -1 0
468 1 3.163029767387252 2.1682185960389786 4.6937826233324635 0 0 0
123 1 0.56946114203165 2.437669433908064 3.9984820395351965 0 1 0
144 1 5.4776321502678815 2.787196199659601 3.6091302112618435 0 0 1
82 1 7.024963061918932 1.7498244672792511 5.892054168432584 0 0 0
137 1 9.251219443363073 3.1926034950829307 4.187189077747786 0 1 1
268 1 12.573158784133925 0.7664673888807976 4.079239560432947 0 1 0
253 1 15.535537567359507 0.46353302331205326 7.043590324653588 0 0 0
456 1 16.000503171194097 2.6801525932964583 5.993435778979786 0 1 0
125 1 23.933234353606384 1.3552285606903902 6.119692478730228 -1 1 1
162 1 3.3665113998637857 4.824023773308 6.489941810455601 0 0 1
233 1 4.411619067461025 5.58532756516468 3.617060455873358 0 0 0
421 1 10.196540963434717 4.904541158882763 6.557605822498036 0 1 0
376 1 9.179825537407758 6.827011151742004 4.70865730856985 0 0 0
499 1 11.64233300480547 7.112237202947445 4.050492182948772 0 0 0
106 1 14.30078367025124 5.268624349488721 6.390231342428344 0 0 1
355 1 20.296662472146604 4.601214047125856 5.388474156329683 0 0 0
121 1 18.530015913669775 3.0591274073923023 6.808993920440175 0 0 0
177 1 0.2008910708243432 4.991618008636511 3.7244672169516924 0 0 0
102 1 22.64462415656477 3.687764618609024 6.55993276859898 0 1 0
182 1 24.017426296273857 5.81821084295038 6.171783862268367 -1 0 0
224 1 2.7609225028524507 9.092765226554041 2.5945633013437446 0 0 0
388 1 6.097378577694835 7.50417876804869 6.254241307405933 0 0 0
203 1 4.018008261528641 8.35908248537496 4.944908006838005 0 0 0
214 1 9.178871632661481 10.841439938760006 4.139973618932962 0 0 0
507 1 9.240713775895095 9.28006474941859 6.1609669047404845 0 0 0
37 1 13.31347820527929 8.977339130538725 5.298901881145735 0 0 0
498 1 15.709015819502968 7.611806134799932 5.1000824223315835 0 0 0
62 1 20.339497348757213 7.067586961931014 6.313374873650701 0 0 0
81 1 18.130439519234237 8.862929716072992 5.789451886043323 0 0 0
449 1 0.7727861128848856 10.149209175999966 5.938870403216575 0 0 0
27 1 22.95639513097549 8.34684705176256 6.247513135608874 0 0 0
445 1 22.842979870057686 9.956430620606112 3.59040096471393 0 0 0
210 1 1.9471448096566695 11.510572535305206 3.901370978483562 0 0 0
204 1 3.6495220197156546 13.120518603697056 6.750375244728941 0 0 0
477 1 5.041905706755554 10.921475227889845 5.565165739313686 0 0 0
207 1 11.52442971269324 12.024942613715709 5.165171625475519 0 0 0
140 1 14.17365736605875 11.63091457997332 4.3442309958492995 0 0 0
158 1 16.9247112057834 12.733462134458913 3.7399810729222462 0 0 0
220 1 14.694278406239928 13.281088105175497 6.799740662611181 0 0 0
335 1 18.08997248304902 13.276280406429452 6.307159823423563 0 0 0
45 1 20.859530740392763 10.75373752917799 6.089910550167615 0 0 0
28 1 22.651589802590834 12.829363726172152 6.03564564732719 -1 0 0
153 1 24.50523105702563 13.642356053372165 7.800081311268528 0 0 0
244 1 3.4793489719302064 14.831149619672896 4.403280721968983 0 0 0
89 1 3.0263581990057324 17.828382002869017 7.132694662488206 0 0 0
246 1 0.7588861630132163 16.476380395833765 7.476463907341395 1 0 0
375 1 3.469872992501949 17.6188930911484 4.10870312298607 0 0 0
289 1 6.0165181904139216 17.743574555677043 6.3066801035508115 0 0 0
155 1 8.498056354164538 14.753524736780852 4.555084415702789 0 0 0
161 1 7.715174149552575 17.43935097324923 4.176320677217312 0 0 0
113 1 9.902098648952672 17.09179868665541 6.020153109529128 0 0 0
69 1 13.486869281194783 15.60767175099105 5.123013685835267 0 0 0
257 1 16.099047055847798 17.630491940858732 4.532483606506926 0 0 0
136 1 20.573901192922914 14.496867911312464 5.842429733808062 0 0 0
242 1 0.09563062617165044 20.02123933851277 3.810903240828553 0 0 0
10 1 6.785020308227395 20.176752017637682 6.900801694654946 0 0 0
195 1 11.128988399150021 20.916840945520885 7.003248439427081 0 0 0
34 1 13.80508713157746 19.37159188750573 6.79996170904575 0 0 0
405 1 14.360463528676142 19.21096692292788 3.0756021230263277 0 0 0
490 1 20.568717911621697 20.281454653718843 4.244223973322528 0 0 0
174 1 18.32408969997469 19.376686603841282 5.411641083869549 0 0 1
93 1 23.583145813739097 18.07433538800234 7.298993786414254 0 0 1
188 1 22.77646956300588 18.47972048920099 4.731258465003492 0 0 0
500 1 2.154171877233501 22.24735934714449 5.79762285652111 0 0 0
19 1 3.5740583659230203 24.21706925894043 5.447518206927134 0 0 0
119 1 6.344702687386337 22.64384505336878 5.579539786061822 0 -1 0
83 1 9.846644813864376 0.28544168562424443 3.6170661124637644 0 1 0
384 1 8.53995605411828 24.151359028944782 6.027310383588628 0 0 0
494 1 13.253921576939165 23.650483114004942 5.613667488773685 0 0 0
274 1 11.85072490576702 23.299537895250204 7.8319320476483725 0 0 0
364 1 14.733629881393444 21.617499676404528 4.662632169785556 0 0 0
198 1 17.467668338404657 21.86370694207214 5.355392306556675 0 0 0
241 1 16.062192818922217 24.67094950660893 9.713066301565346 0 0 1
410 1 20.506937661373794 22.933250141817982 4.088911864002522 0 0 0
383 1 22.292513990536936 23.983725914331824 6.165709171106326 0 -1 0
319 1 0.2533957456563761 1.8286175689307538 8.484597378747058 0 1 0
67 1 2.982975557436153 2.482656802764887 7.664631639855232 0 0 0
305 1 5.2225457210931925 0.4693670316548946 7.461237472938898 0 0 0
380 1 7.904394487529267 3.5193945172478283 7.55335552572811 0 1 1
132 1 11.470317168456834 0.7865717763223365 10.880266977040193 0 1 0
51 1 13.291972348481718 1.3685663952437366 8.368351147524432 0 0 0
488 1 17.31642747526641 2.218618317577467 10.6618868658456 0 1 0
363 1 19.775892914830138 2.1694092723495992 9.21603050563394 0 1 0
390 1 24.09333944183975 3.880982525816243 10.302259426268686 0 0 0
434 1 1.270903023901434 5.9532137113854215 7.614438633047276 1 0 0
16 1 5.71961717768037 5.176446857655548 7.408453620784655 0 0 0
88 1 10.12685590941942 6.51519463665848 8.939409334844388 0 0 0
86 1 12.439017504041756 2.9751102775297826 5.91795839545429 0 0 0
254 1 18.392152651882437 6.974755733764639 8.635635627966078 0 0 0
303 1 14.188755718391482 5.8089577717108 8.987711185687369 0 0 0
337 1 17.06665590188218 4.504592631662479 8.561994241263069 0 0 0
496 1 21.63401772634797 4.025211831618214 9.071093883354049 -1 0 0
193 1 2.506635663885848 8.186110831965872 7.174458254580504 0 0 0
33 1 3.7399356208116 8.850283279738118 9.521631483609921 0 0 0
130 1 6.500456687611192 8.814378243741718 8.894126142432746 0 0 0
44 1 8.079245243396507 10.806090026793786 10.47461174630781 1 0 0
165 1 11.385688562233652 8.5691017387729 7.903636277721706 0 0 0
235 1 10.694185907952647 10.791087795142401 9.388843121372343 0 0 0
217 1 17.475780064299318 9.555045364358959 8.749217816207015 0 0 0
435 1 14.489210358233922 9.415827990474455 8.20990188530395 0 0 0
291 1 20.453592859714522 6.133321894397899 9.86369832468549 0 0 0
453 1 22.316355110304066 8.246104524881781 9.131407330801304 -1 0 0
478 1 1.508051291980393 11.979533979842532 7.906053794994074 1 0 0
50 1 5.9098381688629 12.259681509505109 10.695239338389579 0 0 0
250 1 7.057981523708786 11.241034173762692 6.997321692642888 0 0 0
105 1 8.20229477995725 13.698213753106153 6.9125485774371835 0 0 0
316 1 9.70077804515828 13.55026341845151 11.595288923230175 0 0 0
295 1 10.696329780450883 13.113674862666796 7.800938871513792 0 0 1
190 1 19.200221367991993 11.413405588372763 8.447793747307374 0 0 0
457 1 13.705773609075806 11.66794063777738 9.182082535984012 0 0 0
424 1 21.448544724940515 10.759127031246138 9.980425914690288 0 0 0
231 1 23.015844950599796 12.899331633177638 10.272840298021682 -1 -1 0
472 1 1.463611448207684 15.175948744979715 9.976556182646448 1 0 0
437 1 3.93097534000426 16.523937087673836 9.489754589894442 0 0 0
31 1 5.2730826247013 13.89123522899503 8.674679054065798 0 0 0
385 1 6.985231825718248 16.135823632087625 8.231347022369643 0 0 0
474 1 11.715315193127926 15.281398538584162 10.709581152354735 0 0 0
401 1 11.716188796351744 15.472172628761058 7.867055439959111 0 0 0
261 1 14.183823765499547 16.853802532827707 7.879040529095185 0 0 0
209 1 16.74025750451013 15.750178202394466 7.454799257223883 0 0 0
262 1 16.47114949763239 14.740553053191457 10.081221944522502 0 0 0
422 1 20.994702042074508 16.51185600582779 7.47569756751114 0 0 0
412 1 21.228654675067137 15.118908291671026 9.875380896122092 0 0 0
171 1 2.635043404293058 20.608964408511188 8.200498589394225 0 0 0
185 1 1.2155188389461038 20.02166909998044 10.998540175969037 0 0 0
273 1 5.256824063607371 20.95129773215902 9.097940030521466 0 0 0
227 1 9.254770795100477 19.287775884091644 7.613345207689644 0 0 0
200 1 7.350089941621194 17.44723805633899 10.470498299893089 0 0 0
323 1 9.911282094805406 18.948812011466835 10.519738091106099 0 0 0
442 1 15.00814730882975 17.783572578937495 10.462009384204704 0 0 0
281 1 17.853249759822365 19.54933125098717 11.193072380147852 0 -1 0
371 1 18.58382529838314 18.061732570565685 7.808776189422585 0 -1 0
294 1 19.265985237028758 20.486810481405396 9.103618255215622 -1 -1 0
454 1 24.305748338106877 20.20518988351503 8.73305586736417 0 0 0
484 1 22.153744019910945 21.09288929467273 10.030474838156035 0 -1 0
366 1 5.610489448457423 23.621908265993802 9.508786954481229 0 0 0
378 1 9.578161881856225 21.316605949921357 11.706935710694886 0 -1 0
368 1 9.73583785484086 24.69807149796227 8.77759403802927 0 0 0
367 1 13.828873398212018 22.509769476569502 9.58177740567234 0 0 0
482 1 15.583525726215129 20.358286398717997 9.0623940811585 0 -1 0
275 1 20.376338053632708 24.586277076403547 8.36338349651629 -1 -1 1
320 1 18.06584590105818 22.933776268668375 8.152115805728513 0 -1 0
206 1 24.75485586607211 24.142630461121772 9.390639252262194 -1 -1 0
402 1 24.61216136361931 22.584636575279262 6.979194733474796 -1 0 0
430 1 22.35281581518412 23.630964926352245 10.491900254384102 0 0 0
360 1 1.8664096605030462 3.033984031521461 11.606073101975392 0 0 0
26 1 3.89043971609253 2.1377901032870437 10.30761543329257 0 0 0
187 1 2.372772340049615 4.409703087617314 13.721827158933332 0 0 0
9 1 6.707903161426665 3.1287478701980125 11.457373509742933 0 0 0
139 1 8.778833497480203 2.5384698533504055 9.740150422192976 0 1 0
104 1 10.354841246360458 3.140214576339067 12.374052775458864 0 0 0
243 1 12.098520198619763 1.5807296429467839 14.467450617853359 0 0 0
118 1 14.22522167708525 2.2369095826485013 12.559186334602513 0 0 0
24 1 15.38421723717975 23.981328014161868 12.342110670781704 0 -1 0
111 1 20.63017543610442 1.374575217837606 12.099844295631533 0 0 0
226 1 17.956664762682454 1.8870836720431212 13.133643056771975 0 0 0
208 1 0.5810534824753842 6.116501957442983 10.47817271091779 1 0 0
356 1 3.1911465303752258 6.694135499372034 11.2453149920531 0 0 0
497 1 24.195936056748614 5.557559146930234 14.356835792547939 0 0 0
159 1 5.4750656853901045 5.173535842927348 10.354534533638297 0 1 0
438 1 7.906021680767918 6.912750944191336 10.043802951986686 0 0 0
276 1 14.243062779177436 3.2443578873271823 9.978345690305218 0 1 0
238 1 11.417985383501506 5.393990442440653 10.811996756754079 0 0 0
311 1 13.421775593665826 6.451717144766923 14.87096896356915 0 0 0
443 1 17.142112039957226 6.58410754749667 11.448756924827453 0 0 0
141 1 20.269804577437103 5.16496227306067 12.326545002358891 0 0 0
299 1 21.756998873361837 7.319939206825385 13.261440301498746 0 0 0
240 1 22.669625965385166 3.6294002632555227 12.991630885605712 0 0 0
5 1 6.490721044752267 10.950276160728578 14.338718298601899 0 0 0
441 1 8.487366750049894 9.873483704641277 12.87769029036867 0 0 0
191 1 12.803925388625036 7.518193849185779 12.512035313349001 0 0 0
279 1 11.689343902745364 10.098521280596238 11.803703841119624 0 0 0
108 1 15.064825509532383 7.945093685997982 10.792037297934758 0 0 0
302 1 16.94062928668159 10.781974068220183 11.355715135182969 0 0 0
61 1 18.802012891941093 8.818096938064144 12.92623956317778 0 0 0
439 1 24.026768794379336 7.943843739111824 11.659777043153404 0 0 0
285 1 24.46073693179871 10.01064932731589 13.625737101046413 0 0 0
340 1 1.8917000477482737 11.42475863600678 12.823605103257666 1 0 0
256 1 1.8647429984921065 14.304963027390416 13.970539536289872 0 0 0
127 1 2.874916648178493 11.192120109530501 10.27512152413747 1 0 0
269 1 6.164175143260255 13.994414488625416 13.096789765140572 0 0 0
35 1 10.575084007935528 11.630483379037909 14.010657512625844 0 0 0
423 1 14.418309728161207 11.196640466437598 12.428328236138547 0 0 0
172 1 14.022743328055245 13.99129202914027 11.264888787642548 0 0 0
13 1 21.137917473555408 10.386725523301752 12.731354663483804 0 0 0
298 1 20.3343782827077 13.079258565553308 13.233222395782516 0 0 0
150 1 18.770226934500243 13.19449032913789 10.7144613928359 0 0 0
321 1 22.80166967377487 11.620691633547327 15.264463191059587 -1 0 0
309 1 23.218415016884535 13.71786357371625 12.943899298097703 -1 0 0
122 1 0.4354891952660378 15.777697444720975 12.303622484274273 1 0 0
327 1 3.6373149615301696 18.38528307372619 11.720621568109198 0 0 0
223 1 4.149052464362937 15.849351179215997 13.708796662793882 0 0 0
205 1 8.013037085992108 15.675264444115191 12.428880794999442 0 0 0
164 1 15.185508256916068 15.934804553056962 13.225472871666978 0 0 0
416 1 17.89164310560487 16.05369104947882 12.293913387003078 0 0 1
349 1 19.08139553023251 15.115484178069996 14.373871318967863 0 0 0
71 1 21.82426361778777 16.316552300675326 12.61640218910518 -1 0 0
87 1 2.999733406544673 21.14208992006016 13.553558322667769 1 0 0
397 1 5.891276932540414 19.701523262517192 11.547782159143916 0 0 0
222 1 6.536484501359367 21.448117957011792 13.51229197471646 0 0 0
463 1 9.21065933861269 20.94367448106921 14.497255929996268 0 0 0
23 1 12.391777811042033 17.769034118731348 11.229306649356332 0 0 0
379 1 12.003970953628816 17.008454191217226 13.729469654171153 0 0 0
22 1 19.749064107744214 18.420386056008223 12.726942089508881 0 0 0
483 1 20.472872585203017 20.678928228127816 14.586606469240273 0 -1 0
362 1 24.307304256764084 18.58933347463272 12.316468159389023 -1 0 0
49 1 22.374289941668778 20.45345799374473 12.505870334719482 0 -1 0
181 1 3.8017077777030583 24.512196751832157 11.28814652138174 0 -1 0
451 1 1.6381934098583624 22.861571461495245 11.065423260741989 0 0 0
471 1 6.963303701810659 24.13098119898472 13.406871969480164 0 -1 0
345 1 4.326957211433369 0.07796103512795788 14.01468051378923 0 0 0
211 1 8.131981289183734 23.375967929744405 10.635811442936042 0 0 0
64 1 11.836958561226687 22.464205353324783 11.352763177477861 0 0 0
65 1 13.000211561070314 23.196981175687572 13.777099895650206 0 0 0
287 1 17.150961674530365 21.757380566867305 13.004138931861691 0 0 1
505 1 14.955519082741255 21.260679374940015 14.704100335669958 0 -1 0
32 1 21.893622882600617 23.868103661756553 13.167142635883302 0 -1 0
487 1 19.36124242867973 22.900519395936165 14.444072292378733 0 -1 0
358 1 24.56857747404553 22.094263440554695 13.358491430100246 0 0 0
432 1 24.84328921394593 2.205948904178629 17.712321413900458 0 0 0
63 1 0.959767131925785 0.21711484669326167 13.44966506217651 0 0 0
308 1 4.624378718335412 2.7226188668108744 14.948073546632115 0 1 0
387 1 5.465314312346908 2.435127601363911 17.33725625895292 1 0 0
369 1 8.909237251058357 2.9480663553265694 15.540797907745675 0 0 0
25 1 12.643901538421662 0.41083784956166847 17.460716673627548 0 1 0
143 1 14.913691313590135 2.035500200976781 16.631721375809544 0 0 0
504 1 16.100782967302713 0.7281784981499312 14.431462295819049 0 1 0
343 1 21.194332966435706 2.6779362858825895 15.373779294302437 0 0 0
18 1 23.23727269810967 0.8663228824634621 14.919814726926436 0 0 0
116 1 23.048385558362003 24.571150899896555 17.427506924093123 0 0 0
178 1 1.3997504953328792 2.098256737377059 15.454902634451848 0 1 0
167 1 6.837716877369375 3.5940267596312543 13.989324636947067 0 0 0
259 1 6.561682059180173 6.526038320212344 14.048550964341976 0 0 0
115 1 6.887655803242572 7.051741306543261 16.634852504029958 0 0 0
91 1 10.688350534866228 5.516412307501788 14.664908852445956 0 0 0
461 1 12.23101199025834 3.825735759747411 16.967434420519734 0 0 0
455 1 14.701760664097366 4.396610673875861 14.408686828919615 0 0 0
296 1 17.77171004932463 4.730567398577777 13.833685101850877 0 0 0
54 1 18.371915770777264 5.9431318225286764 16.275055276630166 0 0 0
70 1 22.493195405107404 4.864934808292606 16.49046812925441 0 0 0
297 1 2.818977032218754 6.86834489843034 15.328860485993404 1 0 0
288 1 3.660137614566553 10.252555577687467 14.371968496719976 1 0 0
99 1 4.263022367382492 7.859859204094384 13.516135169691866 1 0 0
30 1 9.488828895212828 7.239159632290433 12.65134204815973 0 0 0
142 1 9.644096273758098 7.6739824481726915 16.61090209362184 0 0 0
406 1 12.93749718756773 10.22665916479986 17.373067043704086 0 0 0
73 1 14.38571309174223 8.012924010993814 17.849004069977667 0 0 0
403 1 17.25498936550549 8.292379684581515 17.661599668739694 0 0 0
57 1 18.808488715037143 9.435534975070606 15.4653566458801 0 0 0
396 1 20.877527707115455 7.330666458871447 15.939607496672416 0 0 0
341 1 0.11708498527929392 8.12143715934453 15.614032317064973 1 0 0
409 1 1.1320383661842204 15.511494129227167 16.140915021065343 0 0 -1
66 1 4.454809374329965 11.594119465008914 17.282199064306734 0 0 0
126 1 6.274365400250753 13.431644496095572 16.093232863523063 0 0 -1
176 1 10.31228675217784 10.281055691541921 16.30607623480947 0 0 0
43 1 8.466585990452218 11.817635707793567 17.358157692410394 0 0 0
157 1 14.378248111369473 11.246152221913269 15.2217796249211 0 0 -1
352 1 16.77238779491147 11.64789795494817 15.66725702045929 0 0 0
228 1 20.429700730316892 13.853912859677797 16.910009526193846 0 0 0
429 1 20.592814559873894 11.033728305267477 16.487376317344825 0 0 0
446 1 23.35470202829697 14.505691125483697 16.740733818177052 0 0 0
160 1 2.5910022179650296 17.544349420350812 16.258671305184567 0 0 0
138 1 5.575611026849328 16.53550382664047 16.130318149178176 0 0 0
462 1 10.951114176144435 14.306949011672476 14.650002259981054 0 0 0
15 1 8.308488700355966 16.952523790878615 14.710615468503713 0 0 0
282 1 13.727057973897612 14.108091754281899 15.639270995710234 0 0 -1
480 1 16.874678649877684 14.305400162032022 15.941540527559738 0 0 0
41 1 20.448856807558492 17.117267035766524 16.635570874711505 0 0 0
110 1 22.4926366058221 16.526772287959943 15.466179707651607 -1 0 0
370 1 3.795077816981069 20.97745578573737 17.77789191986445 0 0 0
154 1 1.1956189215425945 19.137829243219684 14.600932347094204 1 -1 0
509 1 5.27975632926114 19.64222397553741 15.756964870015688 0 0 0
47 1 10.220613564589089 18.649546507333355 15.314608240852191 0 0 0
411 1 7.328654012438473 21.068240494671116 16.836563962547537 0 0 0
467 1 13.851597616803854 18.607887970562963 15.596623254449801 0 0 0
219 1 16.175587765682142 17.39627649685727 16.06105946693383 0 0 0
39 1 18.454148273744586 18.54494335986452 15.75520411997995 -1 0 0
458 1 18.37081403104961 20.284311555531293 17.674268183621177 0 -1 0
245 1 22.604694599691918 20.86004838874853 16.421252250233024 0 0 0
399 1 23.96158958007818 18.627079382114122 16.222435350657637 0 0 -1
75 1 2.5288946145472244 23.17900431157361 15.478416163906354 0 0 0
249 1 0.9129292876446824 21.468317163042688 18.431491423183694 1 -1 0
395 1 5.116210661990589 24.231943518501346 17.41532565376972 1 -1 0
400 1 10.856442450206156 23.153441325356756 15.535395631816687 0 -1 0
350 1 8.62817815680414 0.1699017026877993 15.326110906090282 0 0 0
215 1 11.386451830920175 21.959329079067118 17.79682999885827 0 0 0
183 1 16.16559357984489 21.910695532389468 17.11643064228209 0 -1 0
170 1 17.765742718103272 23.82883977797307 16.232522995790724 0 -1 0
80 1 24.583972354035957 22.57527541017567 16.208142258667703 -1 0 -1
212 1 1.642853929661954 1.5818900608936053 19.874972068227876 0 1 0
310 1 7.25344913836189 3.6384185634035022 20.355610125021755 0 1 0
239 1 3.880527514531719 2.4709311986159648 19.78318988601075 1 1 -1
72 1 7.681710634989959 4.286415479995106 17.522085245898985 0 0 0
78 1 10.108801361352912 0.9994163670905079 18.42770851561254 0 1 0
247 1 12.772211847634251 1.743098862594502 21.74327640784641 0 1 0
495 1 17.059290926950077 1.4066472784514266 20.09254484214782 0 1 0
21 1 18.808703752181994 0.10459201993683549 18.29579576389742 0 1 0
489 1 19.948644193341057 2.4474029814216185 17.929659393172102 0 0 0
481 1 21.27744042340772 2.701116402994679 20.27192916904499 0 1 0
147 1 2.96037700607734 4.874339185794459 17.71863042624534 0 0 0
94 1 2.4911494422444296 4.294751394756844 21.73655710050269 1 0 0
392 1 1.0469930793810405 5.3920018823215425 19.500838712032785 0 0 0
361 1 5.10039045056599 6.627426073139805 18.774794512415394 1 0 0
84 1 8.555996552463244 6.329807479749036 21.1053722354707 0 0 0
85 1 10.189386714586055 3.7783732944051382 19.194294679148932 0 1 0
146 1 12.906930484260549 6.0324845221605266 18.641233474589665 0 0 0
300 1 15.78604573894489 3.4622677095290517 19.042598702232215 0 0 0
447 1 14.598195082172145 5.064869371896327 20.702285352894293 0 1 0
95 1 18.225174784774534 4.6732340061043445 18.532281835172604 0 0 0
344 1 20.106916372830586 5.080969322957259 20.968752885511947 0 1 0
417 1 23.717557325782696 4.090923005666311 18.974831737855748 -1 0 0
74 1 0.6880065064540072 8.869657456891934 18.815073205844996 0 0 0
493 1 4.431727006966468 8.988732107132373 20.735141739645343 0 0 0
197 1 3.247219987837936 8.689451861435481 17.18396037372282 0 0 0
506 1 7.339998211161783 8.947919576526623 20.271330391942104 0 0 0
135 1 6.616005084945853 9.828325259163044 17.6127760279235 0 0 0
407 1 11.512177990012257 9.45616255400318 20.896960110533016 0 0 0
307 1 10.440210466778163 7.141381466005046 19.036574457316355 0 0 0
428 1 18.833308909158436 7.617119839679111 20.079273331135077 0 0 0
263 1 14.936931089522933 9.235435008072352 20.348142804199743 0 0 0
229 1 20.144480869727026 9.832629044111236 21.05243523183163 -1 0 -1
1 1 22.61238953711665 6.48954592884487 20.455136856125588 0 0 0
317 1 22.82616369153476 8.327849745962423 17.976268112385757 0 0 0
36 1 0.9034562926221615 11.603175689473499 19.264099019575667 0 0 0
58 1 2.3975824010305415 13.827187191604242 17.943898678087034 1 0 0
56 1 4.147548691607527 11.47519109841497 19.897269609284947 0 0 0
284 1 8.410150832083113 12.08675817001783 19.915318727764756 0 0 0
391 1 12.222368837666798 11.975037390151018 19.588647004733918 0 0 0
315 1 10.463738787306259 14.571373317020116 19.30475296035878 0 0 0
129 1 16.173850445392254 11.231355891399906 18.44102932395326 0 0 0
312 1 17.94918097097645 11.373823248215341 20.275235638906146 0 0 -1
339 1 21.835660557754455 10.671037521295771 19.05689694469003 0 0 -1
97 1 23.50912570578299 12.726458814022084 20.187117864704476 0 0 -1
393 1 3.200685245227519 16.011730261643596 19.582432049543353 1 0 0
511 1 7.256689099798319 16.830620292832705 18.370873875503317 0 0 0
336 1 5.833136865726641 16.042457255584555 20.247958527825734 0 0 0
444 1 8.970213768106564 15.049582533296466 16.693180649528596 0 0 0
79 1 12.833034474551447 15.052149616340852 18.08569161351601 0 0 0
469 1 17.059137830744863 15.783788695992556 18.451832861173507 0 0 0
199 1 15.109882900733034 14.198637191137315 19.156345431338444 0 0 0
260 1 19.03485298816243 13.796055873111357 19.607855970898427 0 0 0
251 1 20.78959521273243 17.010933920296477 19.46985118670326 0 0 0
114 1 23.167084045912407 15.65238456974012 19.29690809148509 0 0 0
419 1 24.61977078030901 17.989859047168242 18.862040520688044 -1 0 -1
512 1 2.68297296939756 18.418582478698543 18.667976817866222 0 0 0
265 1 6.025668480733811 21.057226527604193 19.836129145841472 0 0 -1
398 1 8.177049239678842 19.39168459289183 19.13785489423237 0 -1 0
510 1 10.534660430983362 19.314801566947597 17.739841457128435 0 0 0
17 1 12.82163860620769 17.944525553555003 18.080367915110937 0 0 0
232 1 10.748019509620459 21.570990477510104 21.77629341110478 0 -1 0
394 1 18.096837240957008 18.23267179352386 19.81384766779088 0 0 0
270 1 13.174240426638418 20.78423754138938 20.503730814951123 0 -1 0
252 1 21.55501189984391 19.498514866518427 20.081540119056534 0 -1 0
42 1 24.28499192144655 20.3536595535867 20.469740179522802 0 0 0
107 1 1.7259995365749348 23.849180986819963 19.91379366608132 1 -1 -1
508 1 4.350453886697953 23.57333077224827 19.958067161688362 0 0 0
353 1 7.596472539900691 23.703574659089735 17.609071375653723 0 0 0
278 1 9.417553024438096 22.909108798852422 19.90113787937452 0 -1 0
354 1 13.948870195796278 23.01576291741509 18.552803259469837 0 0 0
168 1 14.517352793452176 0.25358047286814656 20.37966562007565 0 0 0
426 1 21.084003971295793 23.665706295705565 19.06973125916009 -1 -1 0
103 1 20.690569793577005 20.96261260034019 18.36012683505901 -1 0 0
255 1 1.7932317476563806 2.054008034536608 24.280202423658352 1 1 -1
286 1 3.667004847872648 0.5069689171061202 24.46112363085572 0 0 0
479 1 4.822525721978545 0.5785065682290068 21.736697344260882 0 0 0
334 1 10.464968553799775 0.6732888536264798 20.976349288235543 1 0 0
184 1 7.918510645786724 1.4765940546526146 22.328374781133498 0 0 0
326 1 9.977203008210834 1.0300064611662576 24.623028418675094 0 0 -1
202 1 13.118701779449726 2.4504772280484417 0.13868816200786796 0 1 1
149 1 17.44772924832918 0.9434053885830631 22.878271184023124 0 1 0
413 1 15.476966238529256 0.18592075313456133 24.300726637383168 0 0 -1
377 1 17.662863003330127 3.553882709439082 24.231844495476782 0 1 0
6 1 0.10376384318977099 1.9308420387452918 22.19268566353538 1 1 -1
112 1 22.606028820728064 0.5641678955537043 0.5869333944946801 0 1 1
322 1 23.492948353555914 24.760891601112977 23.122959447128963 0 0 0
124 1 2.034245234885357 4.952166487562808 24.636256525273318 1 0 0
133 1 0.05352262624109693 6.411206830208831 23.90858793956842 1 0 0
427 1 5.244400362145064 5.354338205423632 21.22201428067847 0 0 -1
46 1 5.6366650048017295 7.082659400176209 23.67590271665974 0 1 0
134 1 11.902392851101737 4.470295056594021 21.439905447226035 0 1 0
100 1 10.892162230014359 5.958539561687353 23.444460220333642 0 0 0
38 1 15.356126767355159 5.193738863117781 24.641473292210634 0 1 0
194 1 19.76365606231456 4.981805735687252 23.760138165611988 -1 0 -1
117 1 23.279151641795984 4.275763982721888 22.376938270607333 0 0 0
216 1 22.022491391419496 3.669973139408304 0.014252062252649453 -1 0 1
440 1 0.5536998792264463 11.459173260112165 23.65147412117607 0 0 -1
48 1 1.2447860107659636 7.6490866194395 21.837961697114856 1 0 -1
90 1 3.8026443740869196 9.080919184766012 23.263225489644952 0 0 0
450 1 4.304039213774044 11.853741708646055 24.86898129771844 0 0 -1
382 1 8.56300675547914 7.681330937904843 23.601661530337374 0 0 -1
313 1 9.07740241323169 10.336622572209349 22.383725599561778 0 0 0
186 1 13.197528929315409 6.951295137364402 24.30395968688185 0 0 -1
55 1 13.545136572433144 9.183310157232102 22.883489712044945 0 0 0
290 1 16.440802552131224 7.133763699449208 21.071018865640852 0 0 0
325 1 16.670601508637965 7.287339597788185 23.70080608470877 0 0 -1
386 1 19.480842648916166 7.333900071486095 24.722560039860348 0 0 -1
452 1 22.167911576154477 8.291806548715478 22.801132597230907 0 0 0
372 1 24.211201946323285 9.878528663229106 21.939808187519088 -1 0 0
201 1 2.4714953496459655 12.200281102434584 22.213752708735125 0 0 0
151 1 6.699822267725789 12.693326816081626 23.550008547949986 0 0 -1
333 1 9.844715218745552 12.10747170554454 24.697789353308938 0 0 -1
381 1 6.175702803434777 13.231473313464868 20.875420638209732 0 0 0
283 1 13.880444738905773 13.1779535580669 21.955078179670394 0 0 0
3 1 16.117280334540375 11.297393667589535 22.490408821166216 0 0 0
314 1 19.45866088484037 13.752769315859734 22.259379951993242 0 0 -1
179 1 21.603779877152267 11.928981283806865 22.673582504556286 -1 0 -1
485 1 4.1798064427047334 16.573938910663347 24.307553773057712 0 0 -1
148 1 2.4133592333948073 15.10077203678989 22.62515483568801 1 0 0
52 1 5.247184746869073 17.697809265692598 22.273819528785516 0 0 0
436 1 8.404212242005716 17.221805028688326 0.4432702081857835 0 0 1
330 1 10.050178841942053 14.782842984578679 24.028914103324283 0 0 0
486 1 13.621199377133168 15.957608279020072 22.150596217468106 0 0 -1
236 1 10.934524834455619 16.15840448462031 21.52734512605535 0 0 0
101 1 20.214269809546018 16.249194162082986 22.1508418325435 0 0 0
264 1 0.17560488663153148 16.239208592199823 21.628306092458306 0 0 0
476 1 22.72634354740751 16.00267296228833 23.238016925566903 0 0 -1
166 1 1.0053079447656055 19.03487769211539 22.179049292309326 1 0 -1
163 1 3.7617718577015173 19.587545597275852 21.31430316524273 0 -1 0
415 1 0.06971057622239638 19.62910195838796 24.659823316807227 1 0 0
92 1 7.496462394026137 18.79064401345555 23.401305208083336 0 0 0
331 1 9.600877567734024 18.512685017505145 21.53543869918866 0 0 0
59 1 11.110860138767787 19.599463641134406 24.33602727068923 0 0 0
96 1 14.916255660025156 17.740222157037902 19.89591686811095 0 0 -1
218 1 15.005123926679657 19.623221904194835 22.109563278089365 0 0 -1
53 1 18.170388742062688 19.378013900212544 22.549208015955852 0 0 0
11 1 20.51949832936502 21.03889559142571 22.281325287124762 0 0 0
196 1 18.793838605080783 17.604209811658873 24.23575037394681 0 0 0
225 1 23.214117894603852 21.475083721349595 23.18189561287194 -1 0 -1
420 1 1.010453894354011 22.947528902702437 22.35852076650015 1 0 -1
408 1 3.0119596317327804 22.945505269758844 24.245969784102 0 -1 0
332 1 7.111921328896793 23.14531735487911 21.645832517418548 0 -1 -1
280 1 4.442905826804733 21.12536899790412 0.5837872156018308 0 0 0
180 1 9.921211265644656 22.146717762684492 0.12980339844782676 0 0 0
175 1 7.065359498007874 21.350748897596677 23.9791282921738 0 -1 0
68 1 11.651079439218915 23.99828973513808 23.385986527013024 0 0 0
491 1 13.813092469856803 22.12202126608797 0.4336267306722783 0 0 1
128 1 14.159701936884856 23.089453564329983 22.379258949269822 0 0 0
501 1 17.08071001599308 22.097677765026912 22.982765407978736 0 -1 0
213 1 21.13177502893615 0.06011379829752437 21.376574005781737 0 0 0
7 1 19.33668190595128 24.029875448716883 23.36226727573249 0 0 0

Velocities

12 0.003742570436771031 -0.0030759801087463456 0.001339846332172118
131 0.0009289886683293067 -0.0024503813033581617 -0.0012611373471388475
348 -0.00091695237265001 0.0030906914028148986 0.0010504020024387976
425 -0.004066190058135361 0.002026967153762203 0.0010494747829391524
189 0.0037828182886550576 0.004457501847157981 0.0015815948944493865
470 -0.0038436406600094596 -0.005464312138264378 0.00467617845415754
359 0.0030009313993148 0.00028130442292815416 0.001152496514291416
230 -0.003828084029077383 -0.0012435244124307436 -0.004643094475913854
431 0.0035470105038448796 -0.006906167537972438 0.004078935372387232
404 0.003351165834271268 0.0026228286844535253 0.0003362268051028223
237 0.0006773105034627834 -0.005844201541715053 -0.004116019409746606
301 0.003431487770043966 -0.0026302370127216867 -0.003394867982044858
77 0.0009048658185076475 0.0011980453863045756 -0.003085137642419741
2 0.0018361475588346149 0.000770629008137883 -9.750341583207672e-05
351 -0.0022796956119535 0.00277651712732304 -0.000650137895462762
221 0.001820881200911065 0.003600449996941256 -0.0038876993817294546
8 -0.003971175456382356 -0.002947770802342042 -0.002065569164474475
98 -0.0028435828050730853 -0.0024255620622950277 0.003324871946719525
169 0.0005387482605136587 -0.0009213562555208724 -0.0032051751976726714
4 0.002741708526677709 -0.0025855773696315354 0.001557432931488605
40 0.00046432750476848954 0.004061253157400919 0.0037873701339314917
329 -0.0013475458769311318 0.0074933597062115925 0.0006955824513272572
328 1.6913187733970275e-05 -0.0012175359948524004 -0.0004121686431783783
145 -0.0004357344690130549 0.000851845297797869 0.0007038980994416305
304 0.002080164293810256 0.002972076130604601 -0.0013240621612750614
277 0.0035669171805034518 0.0024743314137786136 0.00293821498288497
76 0.0010009333163593739 -0.00409783321276847 0.001578521713445411
418 0.0024051112122344615 0.00024924616256746785 -0.004188118195823494
503 -0.003138266197777965 0.00022990162315488392 0.005235084339486043
414 -0.002510744617694368 0.0005943796325541666 0.0003265057297317902
293 0.004747536638483093 0.004719853774945518 -0.0021476859685581177
466 0.0005390193038583282 0.007728249761526537 0.0006144932465261898
292 -0.0002369691366659551 -0.0018395912201548193 0.005595764168722035
248 -0.0007343464017444676 -0.00092714902133862 -0.0022441212229447104
357 -0.004760306995049643 0.006894429339810196 0.00011325875580678103
156 -0.0027461634100216996 0.0038138683695432005 0.00043495534680913626
459 -0.004739863082910975 -0.00041728002098705494 0.005390050094905209
306 -0.00405421292646901 -0.005384129241214776 -0.0037709068520079526
346 0.0004212985369611829 0.0011421131573252322 0.002678305307365258
20 -0.0011182296179511422 -0.0009442783097403573 -0.005354889529078861
318 -0.0035779986684111435 -0.004052872886096463 -0.002645891831786821
109 0.0006709273754941306 -0.00710049885453318 -0.00218324206457104
272 -0.00017861032498188973 0.00036299816137405893 0.004337907048067244
192 0.0032359638327838776 -8.825116540008708e-05 -0.0007814288763318277
492 0.0018133352984938253 0.0038898754795354835 -0.0017753708585550017
389 -0.002923244675060897 -0.00017213679010606253 0.0018654017511213247
173 -0.006941327014291262 0.0024311859306848076 -0.0010525494068264727
365 0.001763154360224521 -0.004047996314396861 0.0069163288767398546
473 -0.0008157125326695932 0.003766332815538449 0.005081775516170558
338 -0.002817741130894452 0.002181001995473179 0.000854241104642573
29 0.0015692584047294102 -0.004061266630179687 -0.0018408550017089491
342 0.0041118395502666594 0.002886723794415179 0.0014202707246653338
433 0.0006541476416878708 -0.006502107294193292 -0.002498236781096483
374 -0.0033709690902585417 -0.0022660645765603658 0.004150352532691583
460 -0.001968632966657853 0.001832201141455511 0.005469726025292645
475 0.0030390345980813157 0.0032868849877422464 0.0030203264911875614
267 0.0021165023927617616 0.0038676689244965374 0.006463970502696506
120 -0.0005701827350270799 0.0005819002625852526 -0.007683413415712791
324 0.00044713346428994395 -0.0035494234490062652 -0.0025045779745414194
373 -0.0028783720287584706 0.0006541323367389745 -0.002756165861781085
152 0.00040077776059631017 0.0008905389967828239 0.0028200942242486214
448 -0.0008879693378087436 0.0026206732291206283 0.0037402788917917794
465 -0.0019320803126133747 0.001497191551692888 0.00452552871138532
271 -0.0007007723077241918 0.0001154804561640331 0.0006573825075516547
60 0.007215483272243389 -0.0032509285786774815 -0.0015277497148198829
266 0.0014710166676675629 0.005158536487119888 0.0019094646246863316
347 0.0005029651558671976 -0.0014647408554268092 0.00021922536809864757
14 -0.0013362334699512503 0.000741380371273766 -0.0018971366380003008
258 -0.0027461483879540004 -0.005582024572690457 -0.004357836241380298
464 0.0020302557520212546 0.00021605574108869358 -0.0066313764651648515
502 -0.0032711995071100434 0.0009019863886164197 0.00035386490540958895
234 -0.0001315428429421778 0.001825000019284455 -0.0009387654519413924
468 -0.0006690828887991426 0.0019208436897908546 0.0015352732283587898
123 -0.004742378554437611 0.0017820383672702573 0.004305655302633523
144 -0.0014356912744963475 -0.0015386269529857194 -0.0028646408304371773
82 -0.003920823832537098 -0.004588714345216579 -0.002637261600524371
137 5.287985282238988e-05 -0.002031343576095656 0.0012136543516704627
268 0.003278793743125633 0.0019316489384344395 -0.0010078579565077515
253 -0.005812415056120417 -0.0019144136034075095 0.0016081757652052428
456 0.002646174783928029 0.00010543524824658511 0.0009015090412051147
125 -0.00023929724367513397 -0.0031791736691848893 -0.0013803697196332573
162 0.0007717852011377626 0.003257624090145697 -0.0002449373600904198
233 -0.006588897198546246 0.0005817144748510519 0.0015439737765361988
421 -0.0035635576871936555 0.0037929847643422996 -0.0010042497485598337
376 -0.00412053371387628 -0.002937717697722524 -0.0017706636790501525
499 -0.005674801308700495 0.0007126351190991042 -0.010677889391083894
106 0.001558428611467181 -0.003979243304137593 0.000718261745744489
355 0.0028619595063669634 -0.002505648355547255 0.0004317794491634995
121 -0.0003437992656512316 -0.0018938657296278469 -3.202727821526397e-05
177 -0.0034479918039167015 -0.0021907645135158882 -0.001307226171679435
102 0.0042705827899526755 0.0075254433311440164 0.00663119307341433
182 -0.0035133706534026727 0.002203964357813378 -0.0003573182348623038
224 0.006467702772830353 0.0025135075034493407 -0.00407777682420478
388 -0.003263871969303172 -0.0013140849800905203 0.00436009153669579
203 0.0019034254038034157 0.007005796775285141 -0.0024383468346140247
214 0.002225391644026498 0.004503375983636775 -0.009138589127254404
507 -0.002853415487972903 0.003340854345238731 0.000868054844455091
37 -0.0027905843596208817 0.0018497529292633992 -0.006553990098642168
498 0.000178293089430561 -0.006856653658191021 -0.0002986954844077325
62 0.00392747471165801 0.005750096633693654 -0.0013093026915687457
81 -0.0016033534954478354 -0.005769455018109826 0.0025260730462134625
449 0.006774985349301042 -0.0010657630866216222 -0.0041672048024863325
27 -0.0023503045389159627 -0.00037209352314923963 -0.001877053880287663
445 -0.0028903493004258 -0.001437078465411069 0.0029542201271047217
210 0.0006231182736338106 -0.002808749822716765 -0.0002937260894214362
204 -0.004678779424228386 0.0004561684547973804 -0.007054107569749942
477 -0.000191448207708548 0.0003739681996388265 -0.005181356104740991
207 0.00462761382250481 -0.0038928373133936957 -0.0005450031816580708
140 0.002564614385689467 -0.0016272394959650253 0.0027939203636207334
158 -0.004600478457274782 0.003941893554749461 -0.003356081923093527
220 0.0008528284831815525 -3.228080962852945e-05 0.0007820170731059701
335 0.0012609784636865217 -0.0005997440120565952 -0.003335377973714401
45 0.00431858543905916 -0.0056555154215364506 0.007471503742885228
28 -0.0019471559170392712 0.0006556263666664943 -0.0028401886347951223
153 0.00011379028736189634 -0.0006566954020367679 -0.00023705380107143877
244 0.004238025252117583 -0.005550985578859664 0.001942478149560848
89 0.00010560840223696538 -0.0009533831102588278 -0.00010705465508074359
246 -0.003989383382743727 0.005223356734477057 0.004043596013792174
375 -0.0005289743963309166 0.0012055779194136199 0.0009839675954443387
289 -0.0005186576533512534 0.00015829534429484107 0.002732739540667369
155 0.001392479559005589 0.0023573553216300804 -0.002771762280696617
161 0.0009795350277830776 -0.00046480452762260097 0.00407833026822307
113 3.0146761300091295e-05 -0.0024131485654564247 0.003313437306317379
69 0.0021383816136076555 0.0021569650477748625 0.00022952712042332727
257 0.0011589429599601093 0.0010832488359238202 -0.004707001470822445
136 0.0020238468445118677 -0.005807803725767739 -0.0014537346796252564
242 0.005417059402398535 0.002263204507172821 0.0024687460377920112
10 -0.0011499201829277398 0.0061396619071869005 0.00382746106676352
195 -0.005439616721699068 0.0016824487965555492 0.002545730320785943
34 0.0011667965349448145 0.0007804288819161419 7.151844054494045e-05
405 -0.002172152430354515 -0.002969444426369081 0.0016511049576845998
490 0.004177433987840261 0.001866251650052765 -0.0035302440639428043
174 0.0009077704970769887 0.0041353528452909806 -0.002460090445029474
93 0.0035004146683629044 -0.005942488155079127 -0.0006543632649163989
188 0.0022961816241148796 0.0012368536101506644 0.0010503945146395262
500 -0.000965989335704806 -0.0039337376356700276 0.0017593170338001522
19 3.669412114955261e-05 -0.0006571363489323396 0.0007466247015614964
119 -0.002081505105387655 0.0011537343693445105 -0.0028275319994133306
83 -0.0010219795049107418 0.004556801471533563 -0.0011176161289076782
384 0.0029083553394536475 -0.004151049388722401 0.0003088529044535768
494 -0.004162697677612337 0.0008344245099895846 -0.0012074051989973205
274 0.0005959795766324947 -0.006230855304453309 0.004436430035995229
364 0.0011866556572815816 -0.004475263252799897 0.0022569996867557855
198 -0.0006991041858429537 0.00038753241582776247 9.492204678289071e-05
241 0.0031548091173909496 -0.00011568975068989403 -0.000896768916749195
410 -0.0011541192567746017 7.88969998420504e-05 0.0010330197053901673
383 0.000760226654760237 -0.004417289352219978 -0.002849967365333599
319 -0.0022968407075866413 0.006249632291544826 0.0003933153762254063
67 0.003694318137422727 0.0005265649993116945 -0.0003358177156124046
305 0.005746023683430176 0.008762516494363945 -0.002103851565227074
380 -0.00024924360553093335 -0.00040935339947466813 1.6912615814174414e-05
132 0.0004957493737032427 0.0007617707950308767 -0.0023758921187301244
51 0.006587048514975281 0.003156507951613951 -0.004053866205115098
488 0.0034080376023051767 0.0016078862961666448 -0.0037109416068398455
363 -0.0009205960786706815 0.0032107460172735728 0.0039931299698102085
390 0.004318937038801948 0.0021183538186765522 -0.004051605279816714
434 0.0010831987005349365 0.0025038361460583743 0.00044818350757945834
16 -0.0027857036747011544 -0.004038144683474836 -0.0069795986715082805
88 0.002101228467044401 -0.004958987553917994 -0.010162341802024837
86 -0.0007796561770026489 -0.0014213345226896299 -0.006857864812716874
254 0.002953702517582917 -0.0019607740594858956 -0.0014806046244368334
303 0.004541790625912567 0.001525072805009682 0.0013389087076097882
337 -0.00980646903580181 -0.002848897905931245 -0.003986763418652841
496 0.001054243935516549 -0.005346428871223198 -0.00436845727881271
193 0.0009895738132894663 -0.0007512784845875672 0.004773100232720036
33 0.0011592107841530326 0.0006581249175784213 0.00037197532452844543
130 -0.00018513270478621888 0.00040015667599361816 -0.0011186160869849518
44 0.002788728554009099 -0.0026214067351193167 -0.00018581647446966118
165 0.0016461787150734313 -0.002995943254711154 -0.004362161679520219
235 0.005756654175112801 0.0032518370276872345 0.00055479720420016
217 0.00045094629280487277 -0.0020909980692725523 0.0036909964732130813
435 -0.0015372704915356983 0.0008414539200651123 -0.00013321036136645673
291 0.005215719407168842 0.003812962390095768 -0.0019861491619059773
453 0.0025409521015538825 0.002225930883846619 0.002005844472932452
478 -0.002792285909894889 0.000225029557863913 0.0014448805199941167
50 0.0018882410252085919 0.003445753742767967 -0.0027139062980899974
250 -0.001495736753067669 2.4523639861258183e-06 0.0009896696524750066
105 -0.0007854677326090397 0.00548412754669919 -0.0029723364613770944
316 -0.0007371178180168237 0.001534776403613988 -0.0008373536152480888
295 0.002586070096616411 0.0040249044101393315 -0.003743253582005639
190 -0.004152317884158115 -0.006707408114743806 -0.00348391161279033
457 0.0040756081067774095 -0.0028413371888274504 0.0010187207886980453
424 -0.004373150113922233 -0.0016726089130887551 0.007561659357251663
231 -0.0014565681360597198 0.001683191963937814 -0.0010087181825444258
472 -0.0011864466627954965 -0.0002890218626091871 -0.0008418660830908645
437 -0.0018489519764481185 -0.00217725626277501 0.001273538260420599
31 -0.005373468771549121 -0.004837988552486933 -0.0028635712525922675
385 -0.0034526938216423346 0.001400888324472268 -0.002600816775071273
474 -0.0028148408045879205 -0.0006348514705585245 -0.0004444496438233993
401 -0.002999482511877012 -0.002483791203173338 -0.0009783273045759933
261 -0.0020300460786096715 0.004344506351881556 0.0012221790047089486
209 -0.0013744659432599567 -0.0006742358914106732 -0.0027896797539039573
262 0.005524052815143686 0.0006138611103951549 0.003236572477337414
422 -0.0024946728314804564 0.005364654588031111 0.000498990523945638
412 0.0010072821446760498 -0.006317512249710933 0.0008339294167449417
171 0.002901040910224484 0.00122358299534885 -0.0050647951410039025
185 0.000525868396502496 -0.0021774684115438204 -0.002349142250512456
273 -0.0010088768639479344 -0.00021849324496177284 -0.001208375404179463
227 -0.0004057253589977786 -0.000671645801316677 0.003249782976447013
200 -0.00018200521250169615 0.0014288051696462049 -0.0011788900646386396
323 -1.7098341295922813e-05 -0.0007007889643981651 0.0002746557108588327
442 -0.0049702680273366745 -0.0026237918261913414 0.00038607990167922526
281 0.005008001933448585 -0.004771249963302047 2.4588755281109274e-05
371 -0.006063836042659346 -0.009652458791152022 0.005973348645974634
294 0.0017176950841027159 8.778632389581903e-06 -0.00443819578078535
454 0.0030680711946021355 6.363226885591357e-05 -0.0013368502340144507
484 -5.464871583262193e-05 0.0019741516425876935 -0.004952763163478673
366 0.0010848505482589637 0.004041653492702346 -0.004238014583653975
378 -0.0014331490977196953 -0.001984405840381459 -0.0029973623211653295
368 -0.0015470137616907943 0.003822536867277218 0.004263441998465577
367 -0.0004032022932823188 0.0008461210665236652 -0.005103165406940111
482 0.0005275198746326618 0.0024858236846018386 0.00201506942136279
275 0.0004927614166075164 -0.003769305501436156 0.001986141399695961
320 -0.004373586477771568 0.005954930754361964 -0.002075494251460386
206 0.0008262336156636332 0.004232158615537506 -0.00048734776231070887
402 -0.003090283123828983 0.0002412351355206745 -0.00025556795083226145
430 0.007131387108187603 0.0013909498051471532 -0.0027593800182260327
360 -0.0011433404042257662 -0.00010278084647417678 0.0037439388091494363
26 -0.0020130912906168425 0.0016530842051744263 -0.0018207494650396593
187 -0.004618747637782268 0.0009232740754188025 0.0014562290440297814
9 -0.0034478227723007465 0.006692499726253502 0.0009300107824468582
139 0.003306526243859746 0.0014995599108447825 0.007099951104023857
104 -0.001149149544758763 -0.003366859008139731 -0.0003968568573007846
243 0.004384137665241586 -0.0010304864677452808 0.0056825740022674875
118 -0.0023071233766396014 0.000731847512966974 0.0004515461577074714
24 -0.0005245719861610943 0.0007509184496348287 -0.0008708706744969248
111 -0.00018968511990146689 0.0015781916233161765 0.003313883192004165
226 -0.0013095383129312383 -0.00052942700359399 0.0008481174627425786
208 0.001076294862903754 -0.0024737308391210027 0.0037491403830571873
356 0.0013016170107814638 0.004312058714427596 0.00372418738132886
497 0.0034170684646065612 0.0017663357818362522 -0.005060439675921743
159 -0.00390417618186821 -0.004360763120255656 0.0027314369312955874
438 0.001389931810131071 -0.00015026284824735768 0.0016012480106247639
276 0.0013336200253285942 -0.001813111236645278 0.001551451605735176
238 0.00593701336210654 0.0006554730084246049 0.003339699582392821
311 -0.001817654816243142 -0.001713783012597893 -0.0018213919896944964
443 0.007551253219841294 0.004331711661608621 -0.0004000193134230004
141 -0.0024128743727241234 -0.0006151707691968975 -0.0029553583263530582
299 -0.0010693635266847033 -0.00048175312430586933 -0.00011824690168338348
240 0.0023493822020725593 -0.005869882436748359 -0.004840704455740976
5 0.0012904358316946762 -0.001750816313289946 -0.0007848714339376142
441 0.0009354620723184387 -0.002047347895610198 0.0023511985957566143
191 0.002812424210538785 8.87037080579621e-05 -0.007212799405656357
279 0.0017820226419385495 0.001662307496260296 0.00024021842853029268
108 -9.357121258547199e-05 -0.0014399693885530375 -0.0013436415855610623
302 0.0012739607029555562 0.0065069163443015905 0.0023976726608619567
61 0.0014259444301894751 -0.0018503452368043936 0.00022660980853335416
439 0.0034266036020492094 0.0023676725151252132 -0.002201883056670495
285 -0.0008060726252460187 -0.005773046977137096 0.001101973794575143
340 0.004349833013701933 0.0007603776540674663 0.0003117957064716989
256 -0.002943275588297786 -0.005206320735502322 -0.0020860603643965956
127 -0.0015045593442201577 -0.0016271798215565306 0.004424696196653531
269 0.00017672758794764465 -0.004672548580953029 -0.00034494891907909184
35 0.0024834246974561034 -0.003946273918748003 0.000826572998545335
423 0.0054154399311331 0.0009456352492683268 -0.0006054725522197299
172 -0.00040358853808288275 0.002928365661434209 0.0048613979563078115
13 -0.005994704497183945 0.0031212518387561967 0.007574107995894091
298 0.005498062226385359 0.004263568512898169 0.004736467332902489
150 -0.00030507192495392977 0.0029173391100334113 -0.002973270714681835
321 -7.906673544914256e-05 -0.0042649974035152876 -0.0006513959010118913
309 -0.00020958465821029206 0.002395479108921815 0.0028299573479670216
122 -0.002564473326818003 0.0017710468792481438 0.00023639717358985636
327 0.0007729069026407582 0.006256668279953851 0.0044865090693821845
223 -0.0020987521202300006 -0.007134488208871957 0.00023190245568232518
205 0.0004115678432689497 -0.00035883272457628743 -0.00011662787181139733
164 0.002239130303553838 -0.002470219101954472 0.003292584732422504
416 0.0027609414055773406 -0.003027726159654118 -0.0007685168394820145
349 0.0030886015273927127 0.002567722176545219 -0.003388307044781568
71 0.0032277085805634564 -0.0020416912202559138 -0.0010805871533138187
87 0.0006599514621862072 -0.004021819616711564 0.0008326273123381039
397 -0.0009682404513421661 0.002065412875188592 -0.004193872148049652
222 -0.0021816774297599324 -0.0004323148784731657 -0.0007264914194259481
463 -0.002855031258048595 -0.005674383923543838 0.005500672752256484
23 -0.0029140717744540194 0.000264487138509289 0.0021844296403780296
379 0.008146456601724273 0.0012426227442189173 -0.00699586934735917
22 -0.004983519773353431 0.001345946042344069 0.0014494873439838847
483 0.002141049344652802 0.0033586246132229873 0.002469528307123867
362 -0.0023514652096922363 -0.0008998654193424776 0.005763703881030117
49 -0.0007265305500203011 -0.0040294239701620625 0.001992837968158189
181 0.002508521795705753 0.0030294978397586575 0.00023417881041038873
451 0.0010189914122789264 -0.0034856826559650843 -0.002748758489018485
471 -0.0018871137402801355 -0.001355830665077263 3.3998477462854038e-06
345 -0.004199803445895793 -0.00020008427681547677 -0.004611586077244041
211 -0.0015209847748025728 -0.006070202324722515 0.006689738136046153
64 -0.0027049839538050096 0.0007034391822457896 0.00400452234042234
65 -0.00047082942173858646 -0.00386614462161288 0.00048398018004328834
287 0.00015595793810954935 -0.00017047889484303095 -0.0003725615791822203
505 0.002731230770050542 -0.0011250063793578316 -0.002803210565031515
32 -0.0013794016138085053 0.003913025006402749 -0.0007478092022358217
487 -0.00020434337643787887 -0.005255329274429264 0.0011193202169838656
358 -0.0019254906146607472 -0.005110606226659469 -0.004869044210590544
432 0.0013075149260866456 0.005053826114399061 -0.002492141374084741
63 0.0036079975418303756 -0.008274302439594634 0.003997030939038157
308 -0.00428082872678435 -0.003132394725361532 0.0019966879039981567
387 0.007586894637749475 1.8577572647631444e-05 -0.002178795567121264
369 0.003940007862343085 0.0015438221979966428 0.00016552566674979445
25 0.004618999985358314 -0.0050352829221961826 -0.0006992461099225376
143 -0.0022787160936325965 0.000815915848957724 0.0017286627677764114
504 -0.0013746090791774918 -0.00266349579848831 0.0012449738030268233
343 0.006754696981378501 -0.004142721077512344 -0.0036336929776395266
18 0.0032144780908908532 -0.0018372974401336516 -0.0015177913945344569
116 0.0009518730236846357 -0.0024579728524833544 0.0008981315481429302
178 0.0017614198594265776 0.0014239998893069842 0.00012648064533910257
167 -0.0008549360414740462 -0.0010439803490211409 -0.0018662898392124364
259 -0.00018255432628067625 -0.0015918994504242863 -0.0002872876657874071
115 0.0039008886617967397 0.0009318319782891749 0.0014568550849002342
91 -0.0012989854801776465 -0.00018475056809900438 -0.00032569445687405456
461 -0.0017589782688631273 -0.002000780868281917 0.0004128864004043069
455 -0.00172832577089769 -0.0011624584070583437 0.002126249921925173
296 0.0032819247201728813 -0.00437396209152175 -0.006709459025885242
54 0.0021802739831149084 0.0012685477528083628 0.001067527274386478
70 -0.00409218420449788 0.0027235440281080966 -0.0033715144370883234
297 -0.0020559788970227607 -0.0024574776492529943 -0.0029610039199926197
288 0.0028736263047814997 -0.0024510563907201716 -0.0032817162885622787
99 0.005220554781223428 -0.002110051451387418 0.0009074222795178915
30 -0.00033817912935251506 -0.004464569809627957 0.005847376771792626
142 -0.0032075138140328467 -0.005224336194962155 0.0036970694043491396
406 -0.0004013967064096235 0.001877939077410053 -0.0019638662520112707
73 -0.0004289705140364666 -0.001116606006289934 0.004719850482082921
403 -0.004001329241042685 -0.002117679356639462 -0.0033103222908487185
57 -0.0023943883981440376 -0.0027535801663480606 0.0009481314333675753
396 -0.0017065235271611161 -0.0011123697324002019 -0.0022207805098991154
341 -0.0010682169610672057 -0.0019750427009866804 -0.004786275610215921
409 0.0010581871252538443 0.0034060125776195394 -0.006151506703992352
66 0.0030025413691799436 -0.004282643374961431 0.002861378369981121
126 -0.004558180708445469 0.0020857351127080994 0.0007726642837167524
176 0.001927747140506933 0.007662502549528346 0.0007356425724359106
43 -0.0011752889234515336 0.002961615537370287 -0.0002518819524289559
157 -0.00506560840203997 -0.003538811484029731 0.0014785869331685297
352 -0.0020090967339385993 -0.00027180726956733356 -0.00019179408924642382
228 -0.0028534100090599657 0.004146355389022144 -0.0005523171273049437
429 0.004404222410110402 -0.002968881648541949 0.0010623024947896988
446 -0.0030667833087296304 -0.0023432806358302726 0.0018523467547001216
160 0.0013351516075729443 0.005183151190253427 -0.0008274363951738495
138 0.004764768001683008 0.0015801849188992237 0.0017052783611360533
462 0.0008834372548399782 -0.00102698274433216 -0.005110812002499773
15 0.004496129665658291 0.006405843013125848 0.004469607595135878
282 -0.004662487115564353 0.00031594389356935274 0.0027412640465640597
480 0.0009023236605374145 -0.0020220423332916364 0.0004823492256990898
41 -0.0029400510655472473 0.001157014409716781 0.0007560075173821913
110 -0.0001781080353512096 -0.0017900634889372157 -0.00028248883446185997
370 -0.0027746637367091057 -0.002328856614683147 -0.0008470221529147447
154 -0.0028375033781629245 0.003891578312150834 0.0047165609429795745
509 -0.000268527487702054 0.0033013625160499965 0.0021607018328436193
47 -0.004327066602941916 0.0020921762467687515 -0.0025012827948881276
411 0.0005003740593794696 0.004107750930419047 -0.0017623691002241453
467 0.0001195318699963764 0.0007168419638187246 0.002942967199759081
219 -0.002673793042083399 0.00777700680056863 0.002284748746290138
39 -0.003349292325515178 -0.0010857831641463533 0.004318207970144476
458 -0.001041425834895573 0.0011230839746525314 0.004314147850663768
245 -0.0012904456882918058 0.003258359468787952 -0.0045839377937738094
399 0.006020635656077276 -0.006336526204077024 0.00322799891144513
75 -0.00046820212511378085 0.007922471345370734 -0.0003879942385108172
249 -0.0033776097354324655 0.0012876604143990387 -0.0017016463587159435
395 0.00016195151718204157 -0.003930915174529679 0.0029815334108936986
400 0.0035809833038020393 0.004681366593393577 -0.0046297079512142274
350 -0.0005832983101403254 0.00148729385193415 0.0021859676531216597
215 -4.083730572824586e-05 -0.0009530439883287086 0.006271825113481986
183 0.0006760407506236622 -0.0008154381008559576 -0.0018972134061965979
170 -0.001625735096163776 -0.00045594701641810424 0.0037652551766353326
80 -6.16572498176165e-05 -0.0016878741482829456 0.0012118321233174076
212 -0.0008090970672196295 -0.002738779934713924 0.0030220804144654835
310 -0.0018688224934236993 -0.003979919453163458 0.003779065619937148
239 0.003315835586900231 -0.0011047014574982622 0.0014969688597494023
72 0.0016656010760978301 0.0028898278037774675 0.0018724841783049324
78 0.003937962635012321 -0.00525448566089839 0.0024097727127440896
247 0.008315537620455803 -4.6859016319404866e-05 -0.001794838593368479
495 0.0025392343797168287 0.00030111686490231555 0.0032721783119036337
21 0.0006039081260962404 -0.002550494352994265 0.0008964620440908431
489 -0.0026691655697603984 0.0032028651009361167 0.005815986848116548
481 -0.0011343248770230004 -0.0015866565770707207 -0.0011476329140979644
147 -0.0012042343378310242 0.005079371863997017 0.003912853763361224
94 0.0005948174853787185 0.001591477202030875 -0.0021418913777273224
392 -0.0011627148600535312 0.0024707846705062366 -0.002977334155071388
361 -0.000783634716635706 -0.0008844968049808498 0.0037944181255114592
84 -0.005343118955701405 0.0012100104582615635 -0.0005638382415095181
85 -0.0023946835551836502 0.0038286063942622366 -0.004463110467593285
146 -0.0011377243593977929 0.0025198428080987927 -0.0009822548167524687
300 0.0006449019481567541 0.0025891124298158675 -0.0016394136008868717
447 0.0018373808841728838 0.004164376822833515 -0.006303248316396622
95 0.0015488768178302807 -0.005297269111222045 0.0001958157597473909
344 0.0007117853780041164 -0.0038555937233287116 -0.004139208392737718
417 -0.0020680200353266937 -0.0025894709397025293 -0.0006009574060151893
74 0.0043563296737816615 -0.0012788196436148188 -0.0005355307281711054
493 -0.002798113332438784 -0.0033034481540511213 0.001579629700871343
197 0.002092277544282752 0.0012856565013378083 -0.0015443792607061002
506 0.0011763154340555105 -0.0055640123042272486 -0.0035341715645583276
135 0.0017910110638656139 -0.002231377757059473 0.00032255644933486087
407 -0.0002805453192391063 0.00013618441972535806 0.0011883341373294613
307 -0.000914231944735755 0.00273766876299245 -0.0030303645429089776
428 0.0020135756957446347 0.0018389539930169603 -0.0008785718252501136
263 0.002938515460303511 -0.0009315283382566674 -0.004120638160301325
229 -0.0020423210933169164 -0.004442233752838286 0.004691108816781445
1 0.002917473097168239 0.0020221622942919104 0.002711847368667619
317 0.0036625455846443877 -0.0010416542393173653 0.0012854621936380713
36 0.004721332713984281 -0.0009338645444478048 -0.001107873917675009
58 -0.0019489111743623332 -0.0031159174274534482 -0.0028846772340882
56 0.002360664703299071 -0.0004682245046356261 0.00681138357696301
284 0.006964386931354165 0.005953090655680971 0.006929339770826968
391 -0.0007151634003496542 0.005203934843758159 -0.005225240430804506
315 -0.005620954033304629 0.0026263877456106205 -4.2241776268031454e-05
129 -0.0024294769874807953 -0.0030772346007860757 -0.0012380629067854777
312 0.00125571361037984 0.0016724924203646693 -0.00013740509056896677
339 -0.00035244262723553235 -0.0003773111347670414 0.0012936512696828304
97 -0.0026456007689150203 0.0003451585934523438 -0.004063719022101858
393 0.0008729149858517155 0.0021618229342913343 0.002382967514263521
511 0.0035283031400398877 0.002970618254102718 0.0004056200052864217
336 -0.0018021096069502308 -0.0019072530005366064 -0.0017284048941162888
444 -0.002156376470332177 0.0032413387620360188 0.003467636972170301
79 0.0042025274690269615 0.001986689477003256 0.000581737133657421
469 0.004601333056859999 0.0006731134490018302 0.0013000528728017585
199 -0.003959855005289497 -0.0030822856395201098 -0.0003939710170848798
260 -0.0033582686316354837 -0.001968986481245508 -0.002310501992885818
251 -0.0008926735494392879 0.002279095954206314 0.002981545795040363
114 -0.001215508293200562 0.003806915599743572 -0.0065478026002569086
419 0.0022743239583681873 0.0015601539797877348 0.0002104541711457533
512 -0.0028495535444259326 -0.004140392458995502 0.0029134411907519443
265 -0.00012022297231176989 -0.002492421603486242 -0.004643307535406087
398 0.0039932000605935256 -0.002408008621311713 0.0009066172989632787
510 -0.0017790931851748425 0.0010481653908596539 -0.00352189393537276
17 -0.0025709882758488886 -0.0013158881407064555 2.7408999013872626e-05
232 -0.0005179552237545243 -0.0011433016056086034 -0.0025217401491904193
394 0.001728711671865252 0.001757652879522243 0.003393035777395569
270 -0.002440797304164764 0.0034011485869873403 0.0002537647075233282
252 -0.003210777411170178 0.0012651429919881343 -0.000668181206055635
42 -0.0034459434971342924 0.004462848775737339 0.004141537734286644
107 0.0015487057161464005 -0.006209597346901887 -0.0005618576828843161
508 0.0005593805517684287 0.004485774874367938 0.005921857113226291
353 -0.005479915371999723 -0.001080373230579879 -0.004634989382143331
278 -0.0017929392631309338 0.002433280359375166 0.001017445520635817
354 -0.0026149424195324894 0.0003708696244710434 0.0011451081200344318
168 -0.00021413950594225098 0.00031737571199343557 -0.0008428185529131079
426 -0.0010149243292553918 0.0006989354599932684 0.00457768523190336
103 0.0076741105565563865 0.0013391046660859954 0.0005568867027601167
255 -0.0024269142149915676 0.00564994702591283 -0.001183327891221798
286 0.005620990163667536 0.001550660238745061 -0.003463855420709128
479 0.0037342060764049795 0.00470685692155653 -0.0014796082407476981
334 0.0019300850645049751 0.0028482822385984276 0.004736714950157229
184 -0.003961863594414071 -0.002892067748879567 -0.0022545522757625677
326 -0.003278634681654222 0.0018797405500491887 -0.006002777922744849
202 0.004087235971475639 0.006154735098803405 0.0030798349161262157
149 -0.0018949219159008438 -0.003861246017390606 0.0049647601663411565
413 0.003250860835691992 0.004563211188983458 6.0271553193599645e-05
377 -0.004494122068919855 0.0025264858785970425 0.00125779352891483
6 0.005621129857768634 0.008505663800767647 0.0008062618125444415
112 -0.0012544067797450955 -0.002196001727503461 3.199875899428893e-05
322 -0.0024925733339782336 -0.0014730244708022746 0.007147682286781725
124 0.0023561990762682736 0.000779981457116203 0.0028991589234156887
133 0.0010242105163124947 0.003354728584318406 0.0017514598840477598
427 -0.00031015709321031916 0.0005396199823433269 -0.004369641553712804
46 0.0019899021302849425 0.005682194822710484 0.005535314240413794
134 -0.0015989621078111734 0.0053522542331198054 -0.0025245394561909723
100 -0.003912507981495446 0.007814130044050894 0.00025140732565100436
38 -0.001265099607110966 -0.0005840566562767668 -0.003566010544886677
194 -0.0016697403412760936 0.0012536782511120845 0.0001403536043005878
117 -0.0032094186432969725 0.0007021526536648958 -0.0018775354342539662
216 0.0015371224179957096 -0.009587994074610407 0.0002891161541162571
440 -0.004527064318492379 0.0030587283198441565 -0.0014001457714445424
48 0.006884535361577746 0.00032823636694021143 -4.974464635134469e-05
90 -0.003816756899060937 0.0020834590560977057 0.005007944500609723
450 -5.691842846074162e-05 -0.0038330509938344533 -0.001865149066836494
382 0.001993720000361403 -0.00247425261678493 -0.0004499716365260288
313 -0.0002448115828832157 0.0010020306580875058 0.005824323675433637
186 -0.007893849199367099 0.004372788133121365 -0.0010480575367751517
55 -0.0011946142685262233 0.004391695238118229 0.004480601861044475
290 0.0031161774467020724 8.496620728628105e-05 0.0007972460492160977
325 0.004190302204543599 -0.0031307711415341877 -0.0022107493673207707
386 0.001831475068290889 -0.0030905002287294698 -0.0004898991109963634
452 0.00015352408528772202 0.0029534878979434686 0.0012215932674873489
372 -0.0036251615946884226 -0.0010140323092923276 0.002555187564336044
201 0.006504736828369618 0.005007513471000207 -0.0023403422821457027
151 -0.0020502368668645662 -0.003818401796802463 -0.0033918627558369207
333 -0.005744273305671499 -0.0008230951068313919 -0.001275860515092056
381 -0.0011965024302365108 0.0013996900154184982 -0.0019055069829089057
283 -0.0003979462468914806 -0.003651987347134731 0.001976983330691214
3 -0.001637569832485696 -0.005626350793238922 0.0036459357904230416
314 0.0013385485947207429 0.0050913012439595525 0.0036057161600649645
179 -0.004109758126188843 -0.002175872929825815 -0.004246385173546563
485 -0.0008598285420563966 0.00032137857149119745 -0.0032031748767227656
148 -0.0046716691934557434 -0.0002922612596245561 0.0007404425288881134
52 0.0007252432979959596 -0.00014424177283342706 -0.0018599678389537063
436 -0.0008048424370588336 -0.002616137104014145 -0.00013473976004314502
330 -0.0008070562061335644 -0.00018369655199641777 -0.005120241664468016
486 -0.0012287062166012244 -0.0031006408128456237 -0.0063844839296548364
236 0.0030592176746951183 0.0005603809527561967 -0.004432048899799819
101 0.0031161156420087886 0.00012060933465978938 0.0007938701386268641
264 -0.0004388937879950027 -0.0006414512787935424 0.0009165786991548973
476 -0.003970474932430263 0.0011715655610270556 -0.006447672131792364
166 -0.0036791196277275433 -0.00042657595822827754 0.003322930525105923
163 0.0012606362136354525 0.004773569758017617 0.0036470038284520424
415 -0.002449899238827953 0.0040019290657414925 0.004238282368652978
92 -0.00012804371383705272 -0.0010355844851238313 -0.001166927112012169
331 -0.002060991398477268 0.00036541665598459257 0.008934300174328422
59 0.0011649887548295151 -0.0015478587374976862 -0.00574177058523401
96 -0.0005243407441603998 -0.0067195148892182244 0.0012867647173910978
218 -0.00206254874910416 0.0005754573632969381 0.0004444856709735661
53 -0.0015862701596815714 -0.002274048597791212 -0.002456763060840019
11 -0.002840269755064011 -0.00335161346417072 -0.004452739070217816
196 0.0021172479908557356 0.00023801253298689844 0.002832133046993655
225 -0.002770985404809056 0.003131144182400446 -0.0017610921591098394
420 -0.0011357563007949577 -0.007167537686399849 -0.0016536789372947006
408 0.0006500232105194835 0.0004324915972776531 0.003580206509084569
332 0.006211712562286113 -0.0028899178530957443 0.0007269143773743336
280 -0.001601654190468105 0.0004247532231448201 -0.0006835805578657489
180 0.0008144501285559454 0.0021737981175431456 -0.00012672155462539836
175 -9.868627755448991e-05 0.0010064436744255806 0.004710923809148867
68 -0.00013612820016500532 0.003279245783924629 -0.0020856674120570532
491 0.004525860033032764 -0.0008893107914879778 -0.0017865374379665243
128 0.002044479698956151 0.0026296010431283838 0.0033066681517724917
501 -0.003322784825900631 -0.004788199261026838 0.0033243024712446
213 -0.0052496247984702565 -0.00037708555980314496 0.002882755881991446
7 -0.002016216069359364 -0.009606417383205165 -0.010016198943216386
